&input
fildyn='dyn'
zasr='crystal'
flfrc='fc.out'
/
4,4,4
8